
Gurobi 10.0.2 (linux64) logging started Sat 20 Jul 2024 03:03:28 PM -05

Set parameter LogFile to value "gurobi.log"
Gurobi Optimizer version 10.0.2 build v10.0.2rc0 (linux64)

CPU model: Intel(R) Core(TM) i5-1035G1 CPU @ 1.00GHz, instruction set [SSE2|AVX|AVX2|AVX512]
Thread count: 4 physical cores, 8 logical processors, using up to 8 threads

Academic license 2446675 - for non-commercial use only - registered to mi___@epn.edu.ec
Optimize a model with 8795 rows, 3277 columns and 22983 nonzeros
Model fingerprint: 0x977eea85
Variable types: 0 continuous, 3277 integer (0 binary)
Coefficient statistics:
  Matrix range     [5e-01, 8e+01]
  Objective range  [5e-02, 1e+00]
  Bounds range     [1e+00, 3e+03]
  RHS range        [1e+00, 5e+03]
Found heuristic solution: objective 82563.636369
Presolve removed 8760 rows and 3214 columns
Presolve time: 0.03s
Presolved: 35 rows, 63 columns, 142 nonzeros
Found heuristic solution: objective 82724.229710
Variable types: 0 continuous, 63 integer (26 binary)

Root relaxation: objective 8.272502e+04, 6 iterations, 0.00 seconds (0.00 work units)

    Nodes    |    Current Node    |     Objective Bounds      |     Work
 Expl Unexpl |  Obj  Depth IntInf | Incumbent    BestBd   Gap | It/Node Time

     0     0          -    0      82724.2297 82725.0191  0.00%     -    0s

Explored 1 nodes (6 simplex iterations) in 0.03 seconds (0.01 work units)
Thread count was 8 (of 8 available processors)

Solution count 2: 82724.2 82563.6 

Optimal solution found (tolerance 1.00e-04)
Best objective 8.272422971000e+04, best bound 8.272501911400e+04, gap 0.0010%
